[VALIDATOR STDOUT]
Checking plan: /home/jfan5/Safety-gen/runs/benchmark/optic/grippers_20260201_172244/grippers/optic_results/grippers-n3-r37-o35-s35001.plan
Plan executed successfully - checking goal
Plan valid
Final value: 140 

Successful plans:
Value: 140
 /home/jfan5/Safety-gen/runs/benchmark/optic/grippers_20260201_172244/grippers/optic_results/grippers-n3-r37-o35-s35001.plan 140
